(set-logic QF_S)
(declare-fun var0 () String)
(declare-fun var1 () String)
(declare-fun var2 () String)
(declare-fun var3 () String)
(declare-fun var4 () String)
(declare-fun var5 () String)
(declare-fun var6 () String)
(declare-fun var7 () String)
(declare-fun var8 () String)
(declare-fun var9 () String)
(declare-fun var10 () String)
(declare-fun var11 () String)
(declare-fun var12 () String)
(declare-fun var13 () String)
(declare-fun var14 () String)
(declare-fun var15 () String)
(declare-fun var16 () String)
(declare-fun var17 () String)
(declare-fun var18 () String)
(declare-fun var19 () String)
(declare-fun var20 () String)
(declare-fun var21 () String)
(declare-fun var22 () String)
(declare-fun var23 () String)
(declare-fun var24 () String)
(declare-fun var25 () String)
(declare-fun var26 () String)
(declare-fun var27 () String)
(declare-fun var28 () String)
(declare-fun var29 () String)
(declare-fun var30 () String)
(declare-fun var31 () String)
(declare-fun var32 () String)
(declare-fun var33 () String)
(declare-fun var34 () String)
(declare-fun var35 () String)
(declare-fun var36 () String)
(declare-fun var37 () String)
(declare-fun var38 () String)
(declare-fun var39 () String)
(declare-fun var40 () String)
(declare-fun var41 () String)
(declare-fun var42 () String)
(declare-fun var43 () String)
(declare-fun var44 () String)
(declare-fun var45 () String)
(declare-fun var46 () String)
(declare-fun var47 () String)
(declare-fun var48 () String)
(declare-fun var49 () String)
(declare-fun var50 () String)
(declare-fun var51 () String)
(declare-fun var52 () String)
(declare-fun var53 () String)
(declare-fun var54 () String)
(declare-fun var55 () String)
(declare-fun var56 () String)
(declare-fun var57 () String)
(declare-fun var58 () String)
(declare-fun var59 () String)
(declare-fun var60 () String)
(assert (= var0 (Concat var1 var2)))
(assert (= var2 (Concat var3 var4)))
(assert (= var4 (Concat var5 var6)))
(assert (= var6 (Concat var7 var8)))
(assert (= var8 (Concat var9 var10)))
(assert (= var10 (Concat var11 var12)))
(assert (= var12 (Concat var13 var14)))
(assert (= var14 (Concat var15 var16)))
(assert (= var16 (Concat var17 var18)))
(assert (= var18 (Concat var19 var20)))
(assert (= var20 (Concat var21 var22)))
(assert (= var22 (Concat var23 var24)))
(assert (= var24 (Concat var25 var26)))
(assert (= var26 (Concat var27 var28)))
(assert (= var28 (Concat var29 var30)))
(assert (= var30 (Concat var31 var32)))
(assert (= var32 (Concat var33 var34)))
(assert (= var34 (Concat var35 var36)))
(assert (= var36 (Concat var37 var38)))
(assert (= var38 (Concat var39 var40)))
(assert (= var40 (Concat var41 var42)))
(assert (= var42 (Concat var43 var44)))
(assert (= var44 (Concat var45 var46)))
(assert (= var46 (Concat var47 var48)))
(assert (= var48 (Concat var49 var50)))
(assert (= var50 (Concat var51 var52)))
(assert (= var52 (Concat var53 var54)))
(assert (= var54 (Concat var55 var56)))
(assert (= var56 (Concat var57 var58)))
(assert (= var58 (Concat var59 var60)))
(assert (= var0 "solution"))
(assert (= "(" (CharAt var46 994)))
(assert (= "(" (CharAt var38 375)))
(assert (= "y" (CharAt var28 431)))
(assert (= "l" (CharAt var44 473)))
(assert (= "(" (CharAt var2 643)))
(assert (= "@" (CharAt var31 399)))
(assert (= "J" (CharAt var44 247)))
(assert (= "+" (CharAt var27 752)))
(assert (= "M" (CharAt var28 657)))
(assert (= "Z" (CharAt var35 556)))
(assert (= "p" (CharAt var50 461)))
(assert (= "&" (CharAt var42 264)))
(assert (= "W" (CharAt var53 420)))
(assert (= "{" (CharAt var50 364)))
(assert (= "+" (CharAt var23 631)))
(assert (= "P" (CharAt var42 916)))
(assert (= "s" (CharAt var4 219)))
(assert (= ";" (CharAt var2 135)))
(assert (= "`" (CharAt var19 786)))
(assert (= "X" (CharAt var28 5)))
(assert (= "+" (CharAt var40 532)))
(assert (= "/" (CharAt var21 578)))
(assert (= "b" (CharAt var56 335)))
(assert (= "y" (CharAt var39 812)))
(assert (= "T" (CharAt var5 736)))
(assert (= "}" (CharAt var54 271)))
(assert (= "p" (CharAt var51 209)))
(assert (= "." (CharAt var30 374)))
(assert (= "#" (CharAt var37 676)))
(assert (= "Q" (CharAt var26 95)))
(assert (= "|" (CharAt var44 428)))
(assert (= ">" (CharAt var18 630)))
(assert (= "P" (CharAt var5 889)))
(assert (= "J" (CharAt var30 251)))
(assert (= "\\" (CharAt var22 812)))
(assert (= "j" (CharAt var47 610)))
(assert (= "i" (CharAt var12 845)))
(assert (= "9" (CharAt var18 833)))
(assert (= "`" (CharAt var4 441)))
(assert (= "N" (CharAt var49 833)))
(assert (= "1" (CharAt var47 94)))
(assert (= "Q" (CharAt var4 653)))
(assert (= "|" (CharAt var25 377)))
(assert (= "c" (CharAt var35 230)))
(assert (= "z" (CharAt var24 678)))
(assert (= "I" (CharAt var18 952)))
(assert (= "q" (CharAt var28 690)))
(assert (= "?" (CharAt var39 180)))
(assert (= "z" (CharAt var23 216)))
(assert (= "4" (CharAt var22 926)))
(assert (= "~" (CharAt var35 878)))
(assert (= "?" (CharAt var5 982)))
(assert (= "b" (CharAt var37 524)))
(assert (= "E" (CharAt var24 602)))
(assert (= "m" (CharAt var33 206)))
(assert (= "e" (CharAt var39 347)))
(assert (= "<" (CharAt var37 2)))
(assert (= "#" (CharAt var21 886)))
(assert (= "." (CharAt var33 226)))
(assert (= "p" (CharAt var5 629)))
(assert (= "Y" (CharAt var10 250)))
(assert (= "5" (CharAt var34 259)))
(assert (= "H" (CharAt var4 155)))
(assert (= "4" (CharAt var32 24)))
(assert (= "Y" (CharAt var44 285)))
(assert (= "3" (CharAt var44 659)))
(assert (= "+" (CharAt var0 450)))
(assert (= ";" (CharAt var53 246)))
(assert (= "4" (CharAt var53 806)))
(assert (= "l" (CharAt var50 972)))
(assert (= "-" (CharAt var54 4)))
(assert (= "4" (CharAt var27 398)))
(assert (= "<" (CharAt var9 353)))
(assert (= "(" (CharAt var44 498)))
(assert (= "g" (CharAt var23 827)))
(assert (= ";" (CharAt var18 171)))
(assert (= "S" (CharAt var45 458)))
(assert (= "Z" (CharAt var19 108)))
(assert (= "!" (CharAt var18 457)))
(assert (= "4" (CharAt var45 122)))
(assert (= "M" (CharAt var16 129)))
(assert (= "|" (CharAt var37 522)))
(assert (= "H" (CharAt var25 25)))
(assert (= "I" (CharAt var34 462)))
(assert (= "'" (CharAt var28 320)))
(assert (= "e" (CharAt var28 279)))
(assert (= "x" (CharAt var8 487)))
(assert (= "%" (CharAt var26 779)))
(assert (= "y" (CharAt var23 496)))
(assert (= "2" (CharAt var57 683)))
(assert (= "$" (CharAt var24 240)))
(assert (= "q" (CharAt var31 205)))
(assert (= "P" (CharAt var59 181)))
(assert (= "S" (CharAt var49 867)))
(assert (= "1" (CharAt var32 463)))
(assert (= "A" (CharAt var23 287)))
(assert (= "c" (CharAt var28 934)))
(assert (= "k" (CharAt var48 178)))
(assert (= ";" (CharAt var17 259)))
(assert (= "o" (CharAt var16 405)))
(assert (= "e" (CharAt var20 708)))
(assert (= "s" (CharAt var11 873)))
(assert (= "8" (CharAt var27 708)))
(assert (= "?" (CharAt var3 670)))
(assert (= "v" (CharAt var60 436)))
(assert (= "5" (CharAt var53 944)))
(assert (= "K" (CharAt var54 153)))
(assert (= "F" (CharAt var47 136)))
(assert (= "i" (CharAt var25 944)))
(assert (= "{" (CharAt var35 852)))
(assert (= "q" (CharAt var46 461)))
(assert (= "$" (CharAt var7 762)))
(assert (= "[" (CharAt var10 668)))
(assert (= "Y" (CharAt var37 646)))
(assert (= "5" (CharAt var40 430)))
(assert (= "1" (CharAt var43 722)))
(assert (= "v" (CharAt var3 841)))
(assert (= "K" (CharAt var44 984)))
(assert (= "R" (CharAt var32 837)))
(assert (= "g" (CharAt var26 364)))
(assert (= "b" (CharAt var29 494)))
(assert (= "S" (CharAt var40 978)))
(assert (= "$" (CharAt var0 768)))
(assert (= "%" (CharAt var26 638)))
(assert (= "B" (CharAt var34 599)))
(assert (= "G" (CharAt var49 257)))
(assert (= "N" (CharAt var59 212)))
(assert (= "l" (CharAt var56 729)))
(assert (= ":" (CharAt var12 248)))
(assert (= "e" (CharAt var54 977)))
(assert (= "m" (CharAt var8 283)))
(assert (= "<" (CharAt var1 703)))
(assert (= "l" (CharAt var25 540)))
(assert (= ">" (CharAt var38 27)))
(assert (= "~" (CharAt var35 828)))
(assert (= "!" (CharAt var20 630)))
(assert (= ")" (CharAt var19 871)))
(assert (= "s" (CharAt var3 93)))
(assert (= ")" (CharAt var41 494)))
(assert (= "'" (CharAt var53 796)))
(assert (= "o" (CharAt var40 704)))
(assert (= "S" (CharAt var14 903)))
(assert (= "*" (CharAt var41 195)))
(assert (= "7" (CharAt var60 613)))
(assert (= "u" (CharAt var20 850)))
(assert (= "1" (CharAt var42 203)))
(assert (= "Q" (CharAt var3 751)))
(assert (= "~" (CharAt var3 981)))
(assert (= "2" (CharAt var60 947)))
(assert (= "*" (CharAt var5 765)))
(assert (= "B" (CharAt var43 329)))
(assert (= "." (CharAt var31 470)))
(assert (= "@" (CharAt var28 499)))
(assert (= "M" (CharAt var35 206)))
(assert (= "y" (CharAt var11 658)))
(assert (= "q" (CharAt var10 880)))
(assert (= "j" (CharAt var40 37)))
(assert (= "T" (CharAt var29 88)))
(assert (= "y" (CharAt var24 729)))
(assert (= "/" (CharAt var56 998)))
(assert (= "P" (CharAt var59 715)))
(assert (= "k" (CharAt var24 996)))
(assert (= "u" (CharAt var33 432)))
(assert (= "Z" (CharAt var49 770)))
(assert (= "2" (CharAt var5 771)))
(assert (= "L" (CharAt var40 558)))
(assert (= "_" (CharAt var51 470)))
(assert (= "T" (CharAt var4 128)))
(assert (= "^" (CharAt var21 689)))
(assert (= "|" (CharAt var2 447)))
(assert (= "{" (CharAt var33 437)))
(assert (= "=" (CharAt var6 538)))
(assert (= "M" (CharAt var1 398)))
(assert (= "`" (CharAt var8 7)))
(assert (= "V" (CharAt var42 904)))
(assert (= "%" (CharAt var26 1000)))
(assert (= "\\" (CharAt var24 365)))
(assert (= "-" (CharAt var44 137)))
(assert (= "," (CharAt var40 152)))
(assert (= "A" (CharAt var19 257)))
(assert (= "n" (CharAt var37 397)))
(assert (= "F" (CharAt var34 849)))
(assert (= "~" (CharAt var56 403)))
(assert (= "P" (CharAt var19 837)))
(assert (= "}" (CharAt var43 342)))
(assert (= "#" (CharAt var60 822)))
(assert (= "M" (CharAt var8 330)))
(assert (= "2" (CharAt var45 184)))
(assert (= "l" (CharAt var7 877)))
(assert (= "r" (CharAt var41 564)))
(assert (= "j" (CharAt var25 368)))
(assert (= "_" (CharAt var37 903)))
(assert (= "i" (CharAt var59 669)))
(assert (= "B" (CharAt var45 428)))
(assert (= "_" (CharAt var51 350)))
(assert (= "^" (CharAt var7 883)))
(assert (= "3" (CharAt var16 546)))
(assert (= "[" (CharAt var45 827)))
(assert (= "." (CharAt var3 565)))
(assert (= "4" (CharAt var50 677)))
(assert (= "|" (CharAt var59 577)))
(assert (= "W" (CharAt var4 37)))
(assert (= ":" (CharAt var7 185)))
(assert (= "&" (CharAt var53 201)))
(assert (= "H" (CharAt var53 767)))
(assert (= "*" (CharAt var29 295)))
(assert (= "g" (CharAt var35 139)))
(assert (= "\"" (CharAt var21 734)))
(assert (= "S" (CharAt var14 927)))
(assert (= "p" (CharAt var45 979)))
(assert (= "!" (CharAt var32 84)))
(assert (= "g" (CharAt var59 382)))
(assert (= "n" (CharAt var34 32)))
(assert (= "+" (CharAt var17 242)))
(assert (= "v" (CharAt var3 582)))
(assert (= "=" (CharAt var49 227)))
(assert (= ">" (CharAt var52 608)))
(assert (= "m" (CharAt var54 581)))
(assert (= "d" (CharAt var48 249)))
(assert (= "3" (CharAt var33 881)))
(assert (= "}" (CharAt var32 171)))
(assert (= ";" (CharAt var3 417)))
(assert (= "u" (CharAt var45 43)))
(assert (= "y" (CharAt var12 472)))
(assert (= "+" (CharAt var52 107)))
(assert (= "," (CharAt var53 378)))
(assert (= "6" (CharAt var52 817)))
(assert (= "@" (CharAt var58 872)))
(assert (= "+" (CharAt var8 783)))
(assert (= "K" (CharAt var20 8)))
(assert (= "p" (CharAt var44 673)))
(assert (= "O" (CharAt var22 819)))
(assert (= "R" (CharAt var1 522)))
(assert (= "Z" (CharAt var56 426)))
(assert (= "=" (CharAt var3 769)))
(assert (= "=" (CharAt var34 577)))
(assert (= "Q" (CharAt var40 575)))
(assert (= "F" (CharAt var0 617)))
(assert (= "_" (CharAt var19 477)))
(assert (= "U" (CharAt var52 779)))
(assert (= "O" (CharAt var55 602)))
(assert (= "1" (CharAt var10 773)))
(assert (= "C" (CharAt var47 973)))
(assert (= "E" (CharAt var51 206)))
(assert (= "X" (CharAt var47 425)))
(assert (= "v" (CharAt var4 292)))
(assert (= "J" (CharAt var7 679)))
(assert (= "l" (CharAt var19 154)))
(assert (= "o" (CharAt var21 591)))
(assert (= "O" (CharAt var59 636)))
(assert (= "I" (CharAt var15 411)))
(assert (= "2" (CharAt var31 1)))
(assert (= "5" (CharAt var20 276)))
(assert (= "L" (CharAt var22 230)))
(assert (= ":" (CharAt var2 900)))
(assert (= "O" (CharAt var25 628)))
(assert (= "n" (CharAt var59 653)))
(assert (= "X" (CharAt var41 650)))
(assert (= "B" (CharAt var16 965)))
(assert (= "K" (CharAt var57 20)))
(assert (= "<" (CharAt var8 87)))
(assert (= "g" (CharAt var55 56)))
(assert (= "h" (CharAt var53 367)))
(assert (= "9" (CharAt var24 953)))
(assert (= "R" (CharAt var6 268)))
(assert (= "^" (CharAt var24 82)))
(assert (= "=" (CharAt var44 66)))
(assert (= "U" (CharAt var45 110)))
(assert (= "v" (CharAt var57 667)))
(assert (= "4" (CharAt var42 488)))
(assert (= "Z" (CharAt var11 41)))
(assert (= ";" (CharAt var42 944)))
(assert (= "w" (CharAt var50 190)))
(assert (= "A" (CharAt var17 174)))
(assert (= "+" (CharAt var0 685)))
(assert (= "s" (CharAt var32 291)))
(assert (= "b" (CharAt var19 500)))
(assert (= "5" (CharAt var45 853)))
(assert (= "M" (CharAt var0 992)))
(assert (= "]" (CharAt var57 76)))
(assert (= "Q" (CharAt var60 557)))
(assert (= "o" (CharAt var11 761)))
(assert (= "," (CharAt var14 253)))
(assert (= "F" (CharAt var60 635)))
(assert (= "G" (CharAt var57 95)))
(assert (= ")" (CharAt var35 611)))
(assert (= "G" (CharAt var36 131)))
(assert (= "3" (CharAt var35 237)))
(assert (= "w" (CharAt var37 678)))
(assert (= "<" (CharAt var57 408)))
(assert (= "/" (CharAt var15 469)))
(assert (= "<" (CharAt var9 345)))
(assert (= "e" (CharAt var13 488)))
(assert (= "A" (CharAt var58 838)))
(assert (= "%" (CharAt var30 48)))
(assert (= "F" (CharAt var32 348)))
(assert (= "~" (CharAt var16 260)))
(assert (= "W" (CharAt var14 129)))
(assert (= "z" (CharAt var20 584)))
(assert (= "#" (CharAt var14 6)))
(assert (= "~" (CharAt var44 857)))
(assert (= "\\" (CharAt var32 453)))
(assert (= "'" (CharAt var28 840)))
(assert (= "I" (CharAt var50 623)))
(assert (= "4" (CharAt var51 466)))
(assert (= "}" (CharAt var29 482)))
(assert (= "b" (CharAt var7 655)))
(assert (= "B" (CharAt var40 606)))
(assert (= "U" (CharAt var33 212)))
(assert (= "J" (CharAt var34 444)))
(assert (= "*" (CharAt var52 898)))
(assert (= "t" (CharAt var5 920)))
(assert (= "w" (CharAt var59 472)))
(assert (= "}" (CharAt var2 770)))
(assert (= "." (CharAt var14 389)))
(assert (= "X" (CharAt var54 146)))
(assert (= "T" (CharAt var9 670)))
(assert (= "Y" (CharAt var6 46)))
(assert (= "N" (CharAt var4 710)))
(assert (= "j" (CharAt var31 486)))
(assert (= "p" (CharAt var28 699)))
(assert (= "b" (CharAt var31 988)))
(assert (= ">" (CharAt var1 6)))
(assert (= "E" (CharAt var28 832)))
(assert (= "J" (CharAt var41 667)))
(assert (= "W" (CharAt var42 346)))
(assert (= "9" (CharAt var42 767)))
(assert (= "+" (CharAt var24 322)))
(assert (= "O" (CharAt var13 769)))
(assert (= "O" (CharAt var5 917)))
(assert (= "5" (CharAt var16 969)))
(assert (= "d" (CharAt var33 85)))
(assert (= "!" (CharAt var3 814)))
(assert (= "m" (CharAt var31 950)))
(assert (= "D" (CharAt var57 17)))
(assert (= "n" (CharAt var20 84)))
(assert (= "g" (CharAt var24 113)))
(assert (= "U" (CharAt var23 37)))
(assert (= "i" (CharAt var60 453)))
(assert (= "r" (CharAt var46 622)))
(assert (= "b" (CharAt var58 887)))
(assert (= "8" (CharAt var26 801)))
(assert (= "G" (CharAt var44 45)))
(assert (= "k" (CharAt var53 869)))
(assert (= "Q" (CharAt var25 274)))
(assert (= "r" (CharAt var50 167)))
(assert (= "!" (CharAt var53 192)))
(assert (= "@" (CharAt var14 23)))
(assert (= "x" (CharAt var33 979)))
(assert (= "D" (CharAt var35 490)))
(assert (= "c" (CharAt var36 926)))
(assert (= "F" (CharAt var40 347)))
(assert (= "i" (CharAt var37 948)))
(assert (= "M" (CharAt var6 195)))
(assert (= "C" (CharAt var8 661)))
(assert (= "^" (CharAt var1 153)))
(assert (= "s" (CharAt var45 780)))
(assert (= ">" (CharAt var20 743)))
(assert (= "P" (CharAt var3 356)))
(assert (= ";" (CharAt var7 719)))
(assert (= "f" (CharAt var25 379)))
(assert (= "{" (CharAt var8 105)))
(assert (= "s" (CharAt var45 464)))
(assert (= "3" (CharAt var31 159)))
(assert (= "Q" (CharAt var50 79)))
(assert (= "y" (CharAt var31 734)))
(assert (= "3" (CharAt var27 199)))
(assert (= "," (CharAt var35 327)))
(assert (= "m" (CharAt var10 91)))
(assert (= "r" (CharAt var35 560)))
(assert (= "\\" (CharAt var24 137)))
(assert (= ")" (CharAt var28 60)))
(assert (= "^" (CharAt var36 240)))
(assert (= "A" (CharAt var20 232)))
(assert (= "V" (CharAt var12 787)))
(assert (= "#" (CharAt var55 277)))
(assert (= "X" (CharAt var28 943)))
(assert (= "m" (CharAt var30 35)))
(assert (= "G" (CharAt var6 485)))
(assert (= "?" (CharAt var21 953)))
(assert (= "P" (CharAt var9 891)))
(assert (= "k" (CharAt var25 420)))
(assert (= "K" (CharAt var14 526)))
(assert (= "L" (CharAt var46 578)))
(assert (= "-" (CharAt var22 489)))
(assert (= "q" (CharAt var48 781)))
(assert (= "8" (CharAt var34 272)))
(assert (= "?" (CharAt var12 479)))
(assert (= ")" (CharAt var50 504)))
(assert (= "i" (CharAt var14 560)))
(assert (= "/" (CharAt var52 58)))
(assert (= "[" (CharAt var27 876)))
(assert (= "(" (CharAt var22 63)))
(assert (= "E" (CharAt var42 68)))
(assert (= "n" (CharAt var1 823)))
(assert (= "-" (CharAt var24 694)))
(assert (= "2" (CharAt var16 67)))
(assert (= "9" (CharAt var38 371)))
(assert (= ";" (CharAt var39 560)))
(assert (= "h" (CharAt var41 489)))
(assert (= "y" (CharAt var36 777)))
(assert (= "2" (CharAt var54 628)))
(assert (= "r" (CharAt var34 660)))
(assert (= "&" (CharAt var13 674)))
(assert (= "0" (CharAt var14 203)))
(assert (= "V" (CharAt var18 88)))
(assert (= "V" (CharAt var52 883)))
(assert (= "H" (CharAt var43 139)))
(assert (= ";" (CharAt var46 201)))
(assert (= "c" (CharAt var59 966)))
(assert (= "p" (CharAt var3 402)))
(assert (= "A" (CharAt var38 722)))
(assert (= "{" (CharAt var14 633)))
(assert (= "t" (CharAt var50 780)))
(assert (= "," (CharAt var34 457)))
(assert (= "4" (CharAt var56 468)))
(assert (= "f" (CharAt var9 989)))
(assert (= "s" (CharAt var12 189)))
(assert (= "1" (CharAt var15 857)))
(assert (= "H" (CharAt var26 925)))
(assert (= "Z" (CharAt var37 763)))
(assert (= "+" (CharAt var36 690)))
(assert (= "_" (CharAt var35 850)))
(assert (= "O" (CharAt var11 278)))
(assert (= "Y" (CharAt var27 301)))
(assert (= "Z" (CharAt var1 910)))
(assert (= "u" (CharAt var46 875)))
(assert (= "7" (CharAt var31 468)))
(assert (= "l" (CharAt var57 116)))
(assert (= "!" (CharAt var37 442)))
(assert (= ">" (CharAt var22 963)))
(assert (= "5" (CharAt var33 893)))
(assert (= "T" (CharAt var48 655)))
(assert (= "v" (CharAt var16 876)))
(assert (= "A" (CharAt var38 237)))
(assert (= ">" (CharAt var32 272)))
(assert (= "," (CharAt var51 661)))
(assert (= "W" (CharAt var13 790)))
(assert (= "1" (CharAt var9 730)))
(assert (= "a" (CharAt var48 26)))
(assert (= "X" (CharAt var7 695)))
(assert (= "@" (CharAt var50 861)))
(assert (= "L" (CharAt var13 464)))
(assert (= "O" (CharAt var44 640)))
(assert (= "U" (CharAt var14 861)))
(assert (= "c" (CharAt var46 223)))
(assert (= "@" (CharAt var11 160)))
(assert (= "?" (CharAt var22 416)))
(assert (= "B" (CharAt var48 200)))
(assert (= ")" (CharAt var14 817)))
(assert (= "9" (CharAt var7 208)))
(assert (= "b" (CharAt var0 402)))
(assert (= "\\" (CharAt var48 859)))
(assert (= "8" (CharAt var44 450)))
(assert (= "J" (CharAt var39 52)))
(assert (= "h" (CharAt var38 967)))
(assert (= "O" (CharAt var18 72)))
(assert (= "@" (CharAt var35 719)))
(assert (= "u" (CharAt var27 599)))
(assert (= "a" (CharAt var20 247)))
(assert (= "n" (CharAt var48 409)))
(assert (= "5" (CharAt var25 930)))
(assert (= "5" (CharAt var6 534)))
(assert (= "f" (CharAt var24 68)))
(assert (= "Y" (CharAt var9 4)))
(assert (= "}" (CharAt var43 697)))
(assert (= "!" (CharAt var21 335)))
(assert (= ";" (CharAt var6 411)))
(assert (= "O" (CharAt var47 942)))
(assert (= ":" (CharAt var5 1000)))
(assert (= "@" (CharAt var22 172)))
(assert (= "N" (CharAt var51 733)))
(assert (= "{" (CharAt var46 452)))
(assert (= "@" (CharAt var39 357)))
(assert (= "\"" (CharAt var24 177)))
(assert (= "J" (CharAt var50 886)))
(assert (= "o" (CharAt var6 472)))
(assert (= "B" (CharAt var10 464)))
(assert (= ")" (CharAt var37 266)))
(assert (= "$" (CharAt var10 365)))
(assert (= "B" (CharAt var44 943)))
(assert (= "h" (CharAt var13 724)))
(assert (= "3" (CharAt var50 647)))
(assert (= "9" (CharAt var51 516)))
(assert (= "{" (CharAt var34 893)))
(assert (= "v" (CharAt var37 677)))
(assert (= "B" (CharAt var35 58)))
(assert (= "'" (CharAt var15 19)))
(assert (= "6" (CharAt var36 197)))
(assert (= "~" (CharAt var25 895)))
(assert (= "7" (CharAt var26 487)))
(assert (= "*" (CharAt var18 194)))
(assert (= "_" (CharAt var51 666)))
(assert (= "`" (CharAt var40 791)))
(assert (= "1" (CharAt var43 916)))
(assert (= "y" (CharAt var6 299)))
(assert (= "u" (CharAt var2 989)))
(assert (= "," (CharAt var43 977)))
(assert (= "B" (CharAt var55 894)))
(assert (= "j" (CharAt var6 516)))
(assert (= "\\" (CharAt var7 977)))
(assert (= "." (CharAt var12 49)))
(assert (= "*" (CharAt var37 9)))
(assert (= "V" (CharAt var51 609)))
(assert (= "Q" (CharAt var37 305)))
(assert (= "#" (CharAt var56 754)))
(assert (= "," (CharAt var31 5)))
(assert (= "Y" (CharAt var60 508)))
(assert (= "<" (CharAt var10 514)))
(assert (= "R" (CharAt var1 867)))
(assert (= "}" (CharAt var1 286)))
(assert (= "q" (CharAt var47 657)))
(assert (= "&" (CharAt var29 572)))
(assert (= "Y" (CharAt var50 790)))
(assert (= "Q" (CharAt var46 467)))
(assert (= "g" (CharAt var28 710)))
(assert (= "\"" (CharAt var43 827)))
(assert (= "X" (CharAt var14 675)))
(assert (= "b" (CharAt var43 286)))
(assert (= "H" (CharAt var41 31)))
(assert (= "6" (CharAt var45 187)))
(assert (= "R" (CharAt var12 925)))
(assert (= "=" (CharAt var45 627)))
(assert (= "S" (CharAt var22 980)))
(assert (= "@" (CharAt var57 639)))
(assert (= "^" (CharAt var1 5)))
(assert (= "9" (CharAt var56 158)))
(assert (= ">" (CharAt var12 985)))
(assert (= "X" (CharAt var55 321)))
(assert (= "(" (CharAt var44 866)))
(assert (= "l" (CharAt var7 940)))
(assert (= "r" (CharAt var9 76)))
(assert (= "D" (CharAt var33 897)))
(assert (= "R" (CharAt var23 336)))
(assert (= "F" (CharAt var12 982)))
(assert (= "y" (CharAt var44 741)))
(assert (= ">" (CharAt var0 531)))
(assert (= "\\" (CharAt var17 906)))
(assert (= "$" (CharAt var40 157)))
(assert (= "[" (CharAt var47 993)))
(assert (= "|" (CharAt var44 401)))
(assert (= "U" (CharAt var22 930)))
(assert (= "P" (CharAt var31 61)))
(assert (= "z" (CharAt var30 207)))
(assert (= ":" (CharAt var11 640)))
(assert (= "5" (CharAt var32 449)))
(assert (= "]" (CharAt var35 257)))
(assert (= "j" (CharAt var34 229)))
(assert (= "U" (CharAt var8 111)))
(assert (= "*" (CharAt var53 11)))
(assert (= "K" (CharAt var59 449)))
(assert (= "m" (CharAt var32 707)))
(assert (= ">" (CharAt var1 427)))
(assert (= "~" (CharAt var4 639)))
(assert (= "(" (CharAt var12 556)))
(assert (= "j" (CharAt var42 616)))
(assert (= "Y" (CharAt var5 412)))
(assert (= "b" (CharAt var42 175)))
(assert (= "H" (CharAt var8 926)))
(assert (= "Z" (CharAt var24 842)))
(assert (= "t" (CharAt var38 447)))
(assert (= "k" (CharAt var56 564)))
(assert (= "C" (CharAt var56 736)))
(assert (= "k" (CharAt var3 46)))
(assert (= "L" (CharAt var49 995)))
(assert (= "7" (CharAt var43 958)))
(assert (= "u" (CharAt var23 60)))
(assert (= "1" (CharAt var59 860)))
(assert (= "Z" (CharAt var55 816)))
(assert (= "*" (CharAt var0 213)))
(assert (= "E" (CharAt var11 92)))
(assert (= "<" (CharAt var5 370)))
(assert (= "w" (CharAt var10 300)))
(assert (= "/" (CharAt var28 995)))
(assert (= "*" (CharAt var37 270)))
(assert (= "8" (CharAt var42 562)))
(assert (= ":" (CharAt var53 784)))
(assert (= "B" (CharAt var0 996)))
(assert (= "}" (CharAt var38 695)))
(assert (= "`" (CharAt var22 626)))
(assert (= "!" (CharAt var43 714)))
(assert (= "D" (CharAt var50 946)))
(assert (= "2" (CharAt var36 883)))
(assert (= "{" (CharAt var14 95)))
(assert (= "-" (CharAt var35 144)))
(assert (= "8" (CharAt var52 73)))
(assert (= "E" (CharAt var51 956)))
(assert (= "!" (CharAt var58 719)))
(assert (= ";" (CharAt var1 975)))
(assert (= "$" (CharAt var59 665)))
(assert (= "L" (CharAt var8 404)))
(assert (= "h" (CharAt var39 213)))
(assert (= "O" (CharAt var22 505)))
(assert (= "1" (CharAt var59 974)))
(assert (= "V" (CharAt var20 408)))
(assert (= "l" (CharAt var45 131)))
(assert (= "?" (CharAt var5 866)))
(assert (= "e" (CharAt var5 618)))
(assert (= "$" (CharAt var16 688)))
(assert (= "w" (CharAt var58 749)))
(assert (= "B" (CharAt var56 541)))
(assert (= "c" (CharAt var35 508)))
(assert (= "s" (CharAt var26 281)))
(assert (= "|" (CharAt var53 718)))
(assert (= "r" (CharAt var7 289)))
(assert (= "L" (CharAt var37 225)))
(assert (= ">" (CharAt var60 400)))
(assert (= "[" (CharAt var7 481)))
(assert (= "a" (CharAt var27 374)))
(assert (= "." (CharAt var41 866)))
(assert (= "_" (CharAt var13 575)))
(assert (= "~" (CharAt var39 748)))
(assert (= "X" (CharAt var55 645)))
(assert (= "i" (CharAt var35 128)))
(assert (= "g" (CharAt var34 310)))
(assert (= "3" (CharAt var29 614)))
(assert (= "W" (CharAt var28 434)))
(assert (= ">" (CharAt var34 121)))
(assert (= "e" (CharAt var6 954)))
(assert (= "d" (CharAt var55 996)))
(assert (= "t" (CharAt var46 353)))
(assert (= "i" (CharAt var12 647)))
(assert (= "u" (CharAt var44 944)))
(assert (= ")" (CharAt var2 639)))
(assert (= "6" (CharAt var34 352)))
(assert (= "2" (CharAt var4 191)))
(assert (= "j" (CharAt var47 37)))
(assert (= "E" (CharAt var36 97)))
(assert (= "'" (CharAt var24 498)))
(assert (= "P" (CharAt var18 757)))
(assert (= "5" (CharAt var10 733)))
(assert (= "N" (CharAt var1 534)))
(assert (= "F" (CharAt var45 775)))
(assert (= "e" (CharAt var59 344)))
(assert (= "K" (CharAt var24 488)))
(assert (= "C" (CharAt var45 793)))
(assert (= "@" (CharAt var22 166)))
(assert (= "a" (CharAt var54 998)))
(assert (= "8" (CharAt var51 888)))
(assert (= "#" (CharAt var25 660)))
(assert (= "M" (CharAt var26 849)))
(assert (= "H" (CharAt var0 479)))
(assert (= "V" (CharAt var46 860)))
(assert (= ">" (CharAt var60 138)))
(assert (= "Q" (CharAt var60 961)))
(assert (= "6" (CharAt var12 323)))
(assert (= "A" (CharAt var1 731)))
(assert (= "H" (CharAt var49 124)))
(assert (= "v" (CharAt var53 624)))
(assert (= "N" (CharAt var43 198)))
(assert (= "l" (CharAt var18 926)))
(assert (= "=" (CharAt var23 394)))
(assert (= "~" (CharAt var40 661)))
(assert (= "D" (CharAt var1 456)))
(assert (= "Q" (CharAt var30 647)))
(assert (= "&" (CharAt var38 968)))
(assert (= "P" (CharAt var5 734)))
(assert (= "a" (CharAt var22 583)))
(assert (= "5" (CharAt var41 850)))
(assert (= "U" (CharAt var3 946)))
(assert (= "v" (CharAt var2 140)))
(assert (= "~" (CharAt var58 558)))
(assert (= "V" (CharAt var45 213)))
(assert (= "!" (CharAt var29 875)))
(assert (= "n" (CharAt var57 107)))
(assert (= "}" (CharAt var36 906)))
(assert (= "%" (CharAt var38 775)))
(assert (= "7" (CharAt var9 33)))
(assert (= "U" (CharAt var48 209)))
(assert (= "y" (CharAt var29 936)))
(assert (= "T" (CharAt var55 619)))
(assert (= "j" (CharAt var51 556)))
(assert (= "n" (CharAt var51 997)))
(assert (= "F" (CharAt var46 435)))
(assert (= "c" (CharAt var16 863)))
(assert (= "}" (CharAt var22 25)))
(assert (= ":" (CharAt var20 227)))
(assert (= "H" (CharAt var10 727)))
(assert (= "t" (CharAt var6 100)))
(assert (= "l" (CharAt var51 425)))
(assert (= "H" (CharAt var32 989)))
(assert (= "5" (CharAt var9 552)))
(assert (= "f" (CharAt var58 435)))
(assert (= "R" (CharAt var44 22)))
(assert (= "h" (CharAt var33 191)))
(assert (= "Z" (CharAt var28 259)))
(assert (= "X" (CharAt var30 496)))
(assert (= "B" (CharAt var39 678)))
(assert (= ";" (CharAt var24 24)))
(assert (= "^" (CharAt var24 737)))
(assert (= ")" (CharAt var24 163)))
(assert (= "S" (CharAt var8 418)))
(assert (= "Z" (CharAt var16 197)))
(assert (= "j" (CharAt var42 793)))
(assert (= "[" (CharAt var19 410)))
(assert (= "n" (CharAt var53 208)))
(assert (= "=" (CharAt var23 557)))
(assert (= "&" (CharAt var37 291)))
(assert (= "#" (CharAt var37 71)))
(assert (= "c" (CharAt var2 721)))
(assert (= "R" (CharAt var8 113)))
(assert (= "e" (CharAt var6 23)))
(assert (= "R" (CharAt var10 580)))
(assert (= "a" (CharAt var11 238)))
(assert (= "|" (CharAt var57 901)))
(assert (= "N" (CharAt var44 558)))
(assert (= "w" (CharAt var19 587)))
(assert (= "i" (CharAt var37 719)))
(assert (= "2" (CharAt var11 933)))
(assert (= "f" (CharAt var25 878)))
(assert (= "j" (CharAt var12 244)))
(assert (= "<" (CharAt var36 295)))
(assert (= "2" (CharAt var3 788)))
(assert (= "+" (CharAt var6 150)))
(assert (= ";" (CharAt var26 179)))
(assert (= "5" (CharAt var20 137)))
(assert (= "." (CharAt var5 606)))
(assert (= "]" (CharAt var3 517)))
(assert (= "U" (CharAt var11 916)))
(assert (= "g" (CharAt var11 31)))
(assert (= "6" (CharAt var7 206)))
(assert (= "D" (CharAt var55 291)))
(assert (= "@" (CharAt var39 751)))
(assert (= "'" (CharAt var54 339)))
(assert (= "=" (CharAt var32 285)))
(assert (= "D" (CharAt var5 202)))
(assert (= "g" (CharAt var22 681)))
(assert (= "J" (CharAt var56 983)))
(assert (= "S" (CharAt var29 480)))
(assert (= "R" (CharAt var18 469)))
(assert (= ":" (CharAt var60 688)))
(assert (= "j" (CharAt var41 418)))
(assert (= "a" (CharAt var39 953)))
(assert (= "Z" (CharAt var49 300)))
(assert (= "F" (CharAt var23 519)))
(assert (= ")" (CharAt var32 563)))
(assert (= "E" (CharAt var3 376)))
(assert (= "_" (CharAt var45 32)))
(assert (= "h" (CharAt var10 510)))
(assert (= "4" (CharAt var31 637)))
(assert (= "0" (CharAt var14 57)))
(assert (= "0" (CharAt var16 576)))
(assert (= "." (CharAt var54 718)))
(assert (= "=" (CharAt var5 742)))
(assert (= "5" (CharAt var23 297)))
(assert (= "/" (CharAt var48 363)))
(assert (= ">" (CharAt var35 704)))
(assert (= "O" (CharAt var20 648)))
(assert (= "U" (CharAt var6 144)))
(assert (= "s" (CharAt var30 206)))
(assert (= "%" (CharAt var3 67)))
(assert (= "e" (CharAt var34 884)))
(assert (= "O" (CharAt var15 915)))
(assert (= "o" (CharAt var17 786)))
(assert (= "X" (CharAt var14 106)))
(assert (= "l" (CharAt var32 829)))
(assert (= "f" (CharAt var13 343)))
(assert (= "6" (CharAt var16 762)))
(assert (= ">" (CharAt var24 861)))
(assert (= "G" (CharAt var40 879)))
(assert (= "-" (CharAt var45 177)))
(assert (= "r" (CharAt var49 766)))
(assert (= "-" (CharAt var4 251)))
(assert (= "5" (CharAt var0 43)))
(assert (= "`" (CharAt var16 988)))
(assert (= "I" (CharAt var57 195)))
(assert (= "z" (CharAt var7 159)))
(assert (= "V" (CharAt var30 139)))
(assert (= "d" (CharAt var38 895)))
(assert (= "}" (CharAt var9 75)))
(assert (= "#" (CharAt var3 11)))
(assert (= "{" (CharAt var43 525)))
(assert (= "/" (CharAt var23 405)))
(assert (= "t" (CharAt var55 469)))
(assert (= "I" (CharAt var17 335)))
(assert (= "," (CharAt var59 556)))
(assert (= "m" (CharAt var35 253)))
(assert (= "q" (CharAt var31 161)))
(assert (= "3" (CharAt var43 814)))
(assert (= "M" (CharAt var56 588)))
(assert (= "5" (CharAt var36 15)))
(assert (= "`" (CharAt var31 564)))
(assert (= "6" (CharAt var52 777)))
(assert (= "b" (CharAt var54 224)))
(assert (= "J" (CharAt var13 298)))
(assert (= "z" (CharAt var15 890)))
(assert (= "]" (CharAt var56 493)))
(assert (= "k" (CharAt var18 747)))
(assert (= ":" (CharAt var47 216)))
(assert (= "!" (CharAt var9 919)))
(assert (= "1" (CharAt var22 655)))
(assert (= "U" (CharAt var49 808)))
(assert (= "5" (CharAt var14 930)))
(assert (= "y" (CharAt var28 969)))
(assert (= "g" (CharAt var32 225)))
(assert (= "P" (CharAt var26 395)))
(assert (= "(" (CharAt var32 2)))
(assert (= "^" (CharAt var35 650)))
(assert (= "}" (CharAt var10 60)))
(assert (= ";" (CharAt var27 119)))
(assert (= "4" (CharAt var35 674)))
(check-sat)